c Output_time 26.03.2020 18:13:30_+0100 1585242810094091090
c ** Program information **
c program_name                          "QBRG_debug"
c version                               "0.3.20"
c date                                  "25.3.2020"
c gid_id                                "673970833836058123f633335630c185360d632e"
c author                                "Oliver Kullmann"
c url                                   "https://github.com/OKullmann/oklibrary/blob/master/Satisfiability/Transformers/Generators/Random/QBRG.cpp"
c ** Machine information **
c machine_name                          "chyna-Lenovo-G50-70"
c bogomips                              3791.08
c ** Compilation information **
c compiler_version                      "g++ 7.5.0"
c compilation_date                      "Mar_26_2020 11:16:30"
c compilation_options                   "--std=c++17 -pedantic -fmax-errors=5 -Wall -Wextra -g -D_GLIBCXX_DEBUG"
c NDEBUG                                0
c OPTIMIZE                              0
c ** Parameters **
c command-line                          "./QBRG_debug" "e40 a40 40" "556*1,1|2-2,1|3-3,1" "" "1,t" ""
c output                                "QuBlRaGe_120_556_1585242809937751436.qdimacs"
c options                               "filtered,renamed"
c num_quantifier_blocks                 3
c  quantifier_blocks                    1:e1-40 2:a41-80 3:e81-120
c num_clause-blocks                     1
c  clause-blocks                        556 * {1-40,1,1/2} | {41-80,1,1/2} | {81-120,1,1/2}
c num_e-seeds                           30+2=32
c  e-seeds                              1 0 1 0 4 120 2 40 1 40 0 40 1 556 3 1 1 1 1 2 2 2 1 1 2 3 3 1 1 2 1 1585242809937750602
p cnf 120 556
e 1 2 3 4 5 6 7 8 9 10 11 12 13 14 15 16 17 18 19 20 21 22 23 24 25 26 27 28 29 30 31 32 33 34 35 36 37 38 39 40 0
a 41 42 43 44 45 46 47 48 49 50 51 52 53 54 55 56 57 58 59 60 61 62 63 64 65 66 67 68 69 70 71 72 73 74 75 76 77 78 79 80 0
e 81 82 83 84 85 86 87 88 89 90 91 92 93 94 95 96 97 98 99 100 101 102 103 104 105 106 107 108 109 110 111 112 113 114 115 116 117 118 119 120 0
-40 -45 -81 0
-7 51 -81 0
-10 62 -81 0
-7 64 -81 0
4 43 81 0
-36 46 81 0
-13 -50 81 0
3 50 81 0
-5 55 81 0
-14 -60 81 0
37 61 81 0
-32 -64 81 0
3 -70 81 0
37 80 81 0
32 49 -82 0
14 -69 -82 0
-1 -41 82 0
6 -41 82 0
13 43 82 0
30 -51 82 0
-3 56 82 0
20 58 82 0
-1 -65 82 0
13 -67 82 0
14 -47 -83 0
25 47 -83 0
-39 47 -83 0
25 66 -83 0
-40 72 -83 0
-17 -78 -83 0
-28 78 -83 0
23 -80 -83 0
22 -53 83 0
22 -69 83 0
-19 -77 83 0
4 -43 -84 0
14 44 -84 0
11 49 -84 0
18 65 -84 0
11 70 -84 0
11 80 -84 0
-28 -41 84 0
-18 50 84 0
-3 -57 84 0
-38 71 84 0
19 -50 -85 0
-36 55 -85 0
32 61 -85 0
10 63 -85 0
5 66 -85 0
-31 75 -85 0
-12 -44 85 0
-18 52 85 0
-34 -53 85 0
-8 -55 85 0
24 -64 85 0
5 69 85 0
24 69 85 0
-22 -71 85 0
-14 -80 85 0
32 -47 -86 0
-22 49 -86 0
10 52 -86 0
-5 -54 -86 0
-12 -55 -86 0
8 -58 -86 0
9 58 -86 0
-27 58 -86 0
-8 -64 -86 0
11 64 -86 0
3 67 -86 0
-18 -80 -86 0
-5 80 -86 0
-26 43 86 0
37 55 86 0
-27 58 86 0
28 65 86 0
-21 42 -87 0
36 -44 -87 0
3 -46 -87 0
-6 -47 -87 0
8 -48 -87 0
-7 49 -87 0
12 -51 -87 0
29 -55 -87 0
18 -61 -87 0
37 53 87 0
-24 55 87 0
-14 -57 87 0
38 -66 87 0
-26 -75 87 0
2 -80 87 0
-11 -58 -88 0
30 59 -88 0
10 -60 -88 0
-1 60 -88 0
28 -61 -88 0
9 67 -88 0
37 -71 -88 0
-8 -72 -88 0
10 -78 -88 0
-29 -42 88 0
26 -51 88 0
-3 54 88 0
-27 57 88 0
-5 -60 88 0
20 -60 88 0
24 -60 88 0
31 -60 88 0
16 -67 88 0
-4 -72 88 0
-11 80 88 0
-17 -42 -89 0
-37 59 -89 0
18 -70 -89 0
11 72 -89 0
29 -76 -89 0
-9 76 -89 0
-24 -80 -89 0
33 41 89 0
3 -45 89 0
35 57 89 0
22 -59 89 0
7 -66 89 0
21 78 89 0
-37 50 -90 0
-7 -55 -90 0
-11 -57 -90 0
15 61 -90 0
-11 -75 -90 0
-34 -41 90 0
17 41 90 0
-9 47 90 0
-25 57 90 0
8 -58 90 0
4 63 90 0
-38 63 90 0
-40 -64 90 0
4 -72 90 0
-38 -72 90 0
22 -73 90 0
13 -79 90 0
-35 -41 -91 0
-32 -43 -91 0
-23 -45 -91 0
-36 45 -91 0
19 50 -91 0
-26 -73 -91 0
-25 46 91 0
3 55 91 0
-28 59 91 0
-2 -74 91 0
-11 75 91 0
29 -45 -92 0
39 -52 -92 0
-39 -54 -92 0
34 -60 -92 0
37 69 -92 0
-7 -72 -92 0
17 79 -92 0
-40 -80 -92 0
-30 42 92 0
22 47 92 0
-32 51 92 0
-23 55 92 0
19 58 92 0
4 -59 92 0
20 70 92 0
21 -75 92 0
38 -77 92 0
-13 45 -93 0
-19 50 -93 0
28 55 -93 0
-16 -65 -93 0
-17 69 -93 0
37 -71 -93 0
37 41 93 0
-17 -52 93 0
37 56 93 0
11 60 93 0
5 64 93 0
-2 65 93 0
8 -67 93 0
-14 -70 93 0
-37 74 93 0
-21 80 93 0
-25 -46 -94 0
35 -46 -94 0
14 -53 -94 0
-30 59 -94 0
6 68 -94 0
6 74 -94 0
11 78 -94 0
33 44 94 0
-12 -51 94 0
20 -58 94 0
-13 -59 94 0
-35 75 94 0
-37 -76 94 0
-31 80 94 0
-13 -44 -95 0
6 48 -95 0
1 -49 -95 0
25 -54 -95 0
-9 58 -95 0
9 64 -95 0
8 -65 -95 0
-29 66 -95 0
15 -71 -95 0
29 71 -95 0
33 -78 -95 0
-15 42 95 0
10 -43 95 0
15 -51 95 0
-11 60 95 0
1 66 95 0
-38 -70 95 0
10 -75 95 0
18 77 95 0
-40 42 -96 0
-10 56 -96 0
7 -65 -96 0
18 68 -96 0
6 -72 -96 0
15 78 -96 0
15 43 96 0
12 46 96 0
-4 62 96 0
30 66 96 0
-20 71 96 0
16 77 96 0
-14 -47 -97 0
-1 -52 -97 0
-10 53 -97 0
-17 -66 -97 0
16 75 -97 0
31 -78 -97 0
-13 41 97 0
-11 60 97 0
-31 66 97 0
-28 75 97 0
-24 -80 97 0
-33 80 97 0
-29 -49 -98 0
37 -49 -98 0
18 52 -98 0
-6 -60 -98 0
25 63 -98 0
13 65 -98 0
10 69 -98 0
6 79 -98 0
-17 -44 98 0
17 44 98 0
13 62 98 0
25 -64 98 0
-12 64 98 0
-2 68 98 0
-15 78 98 0
3 43 -99 0
-18 -52 -99 0
20 56 -99 0
-39 -71 -99 0
-36 -75 -99 0
-15 42 99 0
-19 -55 99 0
-4 -74 99 0
-35 55 -100 0
-14 59 -100 0
32 60 -100 0
-12 -75 -100 0
17 80 -100 0
-29 41 100 0
-14 -49 100 0
16 -54 100 0
15 -59 100 0
-21 -61 100 0
31 62 100 0
8 -65 100 0
-24 -79 100 0
-18 -52 -101 0
-24 -52 -101 0
35 67 -101 0
-11 -74 -101 0
2 80 -101 0
36 -43 101 0
32 47 101 0
-27 -52 101 0
-11 66 101 0
5 -68 101 0
-17 -68 101 0
26 -69 101 0
30 73 101 0
33 44 -102 0
-32 -48 -102 0
-39 -62 -102 0
-24 67 -102 0
29 -69 -102 0
11 70 -102 0
-35 52 102 0
40 53 102 0
-15 -59 102 0
-30 -59 102 0
-13 74 102 0
32 -80 102 0
23 -46 -103 0
12 -48 -103 0
-16 -48 -103 0
-39 -52 -103 0
37 56 -103 0
-16 -60 -103 0
17 62 -103 0
14 -65 -103 0
9 -80 -103 0
33 80 -103 0
-30 42 103 0
-19 -47 103 0
-28 48 103 0
-32 51 103 0
-16 -59 103 0
-21 71 103 0
22 -80 103 0
6 48 -104 0
14 -57 -104 0
-19 59 -104 0
-8 61 -104 0
-5 69 -104 0
-26 75 -104 0
15 43 104 0
24 48 104 0
14 -50 104 0
-40 -57 104 0
-3 -71 104 0
2 -75 104 0
-21 77 104 0
-28 79 104 0
22 -80 104 0
6 48 -105 0
-28 -50 -105 0
-11 51 -105 0
4 -54 -105 0
7 55 -105 0
-4 56 -105 0
5 60 -105 0
11 61 -105 0
24 -67 -105 0
-3 78 -105 0
38 -50 105 0
7 53 105 0
8 55 105 0
-11 55 105 0
-21 76 105 0
-36 -78 105 0
-14 42 -106 0
15 -44 -106 0
22 44 -106 0
-38 44 -106 0
24 70 -106 0
-18 74 -106 0
15 75 -106 0
25 -78 -106 0
-40 -80 -106 0
2 46 106 0
-21 55 106 0
-33 55 106 0
-11 57 106 0
-17 -67 106 0
11 -80 106 0
-37 -43 -107 0
-7 47 -107 0
7 48 -107 0
18 -55 -107 0
-34 65 -107 0
-17 -74 -107 0
-7 -80 -107 0
1 -56 107 0
39 -58 107 0
25 -62 107 0
14 62 107 0
6 66 107 0
-3 71 107 0
-39 78 107 0
38 43 -108 0
30 51 -108 0
24 -53 -108 0
28 55 -108 0
-24 65 -108 0
34 68 -108 0
21 73 -108 0
11 79 -108 0
-34 -44 108 0
-32 -48 108 0
15 61 108 0
-7 71 108 0
-12 75 108 0
-37 77 108 0
39 -45 -109 0
11 51 -109 0
34 54 -109 0
14 58 -109 0
34 69 -109 0
4 -71 -109 0
19 71 -109 0
19 -74 -109 0
20 -43 109 0
16 52 109 0
-8 55 109 0
20 -58 109 0
25 -61 109 0
36 -61 109 0
9 -70 109 0
-7 -71 109 0
27 72 109 0
19 -41 -110 0
-24 46 -110 0
15 -54 -110 0
1 -55 -110 0
-15 57 -110 0
20 -64 -110 0
-27 -70 -110 0
-10 -73 -110 0
9 -46 110 0
23 -49 110 0
15 53 110 0
17 53 110 0
-10 -54 110 0
16 71 110 0
-22 72 110 0
13 77 110 0
26 47 -111 0
-27 -50 -111 0
18 -51 -111 0
38 -53 -111 0
15 -60 -111 0
-10 65 -111 0
14 -69 -111 0
-16 70 -111 0
32 -74 -111 0
14 -77 -111 0
4 80 -111 0
-33 -47 111 0
6 55 111 0
26 57 111 0
16 59 111 0
9 -45 -112 0
-37 -58 -112 0
-8 76 -112 0
1 -62 112 0
-23 -70 112 0
40 -70 112 0
-34 -71 112 0
19 -78 112 0
-2 78 112 0
-23 45 -113 0
-20 -49 -113 0
-19 49 -113 0
33 -60 -113 0
1 -63 -113 0
-29 67 -113 0
32 76 -113 0
18 -45 113 0
-8 57 113 0
33 58 113 0
-29 69 113 0
28 72 113 0
-32 -43 -114 0
33 -55 -114 0
-14 56 -114 0
-20 -60 -114 0
-8 63 -114 0
-3 77 -114 0
5 77 -114 0
27 -68 114 0
-36 -73 114 0
-16 -79 114 0
23 -80 114 0
-13 54 -115 0
14 74 -115 0
27 42 115 0
13 -44 115 0
22 -45 115 0
-1 49 115 0
-24 -52 115 0
38 53 115 0
18 -59 115 0
7 -61 115 0
-15 -63 115 0
-15 64 115 0
21 -74 115 0
-11 46 -116 0
-30 57 -116 0
-37 57 -116 0
15 60 -116 0
7 -73 -116 0
1 -47 116 0
30 -47 116 0
-29 -59 116 0
-25 -60 116 0
-29 -64 116 0
13 -79 116 0
38 -44 -117 0
29 -45 -117 0
37 -45 -117 0
10 51 -117 0
-14 61 -117 0
-11 -68 -117 0
-16 68 -117 0
-19 -72 -117 0
27 -46 117 0
34 -53 117 0
-25 57 117 0
32 -63 117 0
3 -70 117 0
25 70 117 0
-13 -74 117 0
31 -79 117 0
38 51 -118 0
-14 52 -118 0
-7 -54 -118 0
-8 -54 -118 0
-10 56 -118 0
-12 -57 -118 0
31 78 -118 0
-38 -44 118 0
-25 48 118 0
-7 57 118 0
-14 59 118 0
20 -62 118 0
-27 -68 118 0
9 76 118 0
-24 50 -119 0
21 53 -119 0
9 58 -119 0
-35 -69 -119 0
-34 -80 -119 0
12 45 119 0
-33 45 119 0
-33 46 119 0
15 -53 119 0
16 68 119 0
25 74 119 0
-15 -44 -120 0
19 57 -120 0
-29 66 -120 0
6 -67 -120 0
-38 -69 -120 0
-28 76 -120 0
-28 -80 -120 0
4 41 120 0
6 42 120 0
38 -44 120 0
-14 -65 120 0
-29 -68 120 0
10 -69 120 0
-32 -69 120 0
-6 -74 120 0
-15 80 120 0
